(set-info :smt-lib-version 2.6)
(set-logic QF_FP)
(set-info :source |
Generated by: Chenqi Cui
Generated on: 2025-10-11
Generator: AutoSMTGen
Application: Generating SMT constraints with small solution spaces to make them challenging for SMT solvers
Target solver: Z3, CVC5, Bitwuzla
|)
(set-info :license "https://creativecommons.org/licenses/by/4.0/")
(set-info :category "industrial")
(set-info :status sat)
; benchmark generated from python API

(declare-fun x6 () (_ FloatingPoint 11 53))
(declare-fun x5 () (_ FloatingPoint 11 53))
(declare-fun x4 () (_ FloatingPoint 11 53))
(declare-fun x3 () (_ FloatingPoint 11 53))
(declare-fun x2 () (_ FloatingPoint 11 53))
(declare-fun x1 () (_ FloatingPoint 11 53))
(declare-fun x0 () (_ FloatingPoint 11 53))
(assert
 (let ((?x17 (fp.add roundNearestTiesToEven (fp.mul roundNearestTiesToEven (fp #b0 #b10000000100 #xe01eebe04b019) x0) (fp.mul roundNearestTiesToEven (fp #b0 #b10000000000 #xe8dbfa5a7008c) x1))))
 (let ((?x20 (fp.add roundNearestTiesToEven ?x17 (fp.mul roundNearestTiesToEven (fp #b0 #b10000000011 #x857f073dc48fa) x2))))
 (let ((?x23 (fp.add roundNearestTiesToEven ?x20 (fp.mul roundNearestTiesToEven (fp #b0 #b10000000101 #xbc5e64bdcc972) x3))))
 (let ((?x26 (fp.add roundNearestTiesToEven ?x23 (fp.mul roundNearestTiesToEven (fp #b0 #b10000000011 #x33e1fc0c4efcd) x4))))
 (let ((?x29 (fp.add roundNearestTiesToEven ?x26 (fp.mul roundNearestTiesToEven (fp #b1 #b10000000101 #x4dd92b356420f) x5))))
 (let ((?x32 (fp.add roundNearestTiesToEven ?x29 (fp.mul roundNearestTiesToEven (fp #b0 #b10000000101 #x5dfebed08640b) x6))))
 (fp.leq ?x32 (fp #b0 #b10000000100 #x07b27984ac8ea)))))))))
(assert
 (let ((?x56 (fp.add roundNearestTiesToEven (fp.mul roundNearestTiesToEven (fp #b1 #b10000000101 #x02406dd04020c) x0) (fp.mul roundNearestTiesToEven (fp #b0 #b10000000001 #xd04802f95cdbf) x1))))
 (let ((?x59 (fp.add roundNearestTiesToEven ?x56 (fp.mul roundNearestTiesToEven (fp #b0 #b10000000101 #xbb5a74c1f472f) x2))))
 (let ((?x62 (fp.add roundNearestTiesToEven ?x59 (fp.mul roundNearestTiesToEven (fp #b1 #b10000000100 #x18f2430fe625f) x3))))
 (let ((?x65 (fp.add roundNearestTiesToEven ?x62 (fp.mul roundNearestTiesToEven (fp #b0 #b10000000100 #x0f5ebed5685e7) x4))))
 (let ((?x68 (fp.add roundNearestTiesToEven ?x65 (fp.mul roundNearestTiesToEven (fp #b1 #b10000000100 #xddcc5b9f19f96) x5))))
 (let ((?x71 (fp.add roundNearestTiesToEven ?x68 (fp.mul roundNearestTiesToEven (fp #b1 #b10000000101 #x2748d6e8452f3) x6))))
 (fp.leq ?x71 (fp #b0 #b10000000101 #x1161be26a6ae5)))))))))
(assert
 (let ((?x78 (fp.add roundNearestTiesToEven (fp.mul roundNearestTiesToEven (fp #b0 #b10000000100 #x4b70be7dff8a7) x0) (fp.mul roundNearestTiesToEven (fp #b0 #b10000000100 #xe3609903f5872) x1))))
 (let ((?x81 (fp.add roundNearestTiesToEven ?x78 (fp.mul roundNearestTiesToEven (fp #b1 #b10000000101 #x2151ac5eb6e16) x2))))
 (let ((?x84 (fp.add roundNearestTiesToEven ?x81 (fp.mul roundNearestTiesToEven (fp #b0 #b10000000100 #x7401ebc938387) x3))))
 (let ((?x87 (fp.add roundNearestTiesToEven ?x84 (fp.mul roundNearestTiesToEven (fp #b1 #b10000000101 #x11f5164a0c54b) x4))))
 (let ((?x90 (fp.add roundNearestTiesToEven ?x87 (fp.mul roundNearestTiesToEven (fp #b0 #b10000000100 #xeb5a5fd229262) x5))))
 (let ((?x93 (fp.add roundNearestTiesToEven ?x90 (fp.mul roundNearestTiesToEven (fp #b1 #b10000000101 #x29faaa8b466ab) x6))))
 (fp.leq ?x93 (fp #b1 #b10000000101 #x6aa2396476b8f)))))))))
(assert
 (let ((?x100 (fp.add roundNearestTiesToEven (fp.mul roundNearestTiesToEven (fp #b1 #b10000000101 #x7ce003dab306e) x0) (fp.mul roundNearestTiesToEven (fp #b0 #b10000000010 #x79620d369be2f) x1))))
 (let ((?x103 (fp.add roundNearestTiesToEven ?x100 (fp.mul roundNearestTiesToEven (fp #b1 #b10000000011 #xaefb3d7b8a105) x2))))
 (let ((?x106 (fp.add roundNearestTiesToEven ?x103 (fp.mul roundNearestTiesToEven (fp #b1 #b10000000011 #x89deffcea0f8b) x3))))
 (let ((?x109 (fp.add roundNearestTiesToEven ?x106 (fp.mul roundNearestTiesToEven (fp #b0 #b10000000100 #x4e144f7ef8467) x4))))
 (let ((?x112 (fp.add roundNearestTiesToEven ?x109 (fp.mul roundNearestTiesToEven (fp #b1 #b10000000101 #x258ce17bb831f) x5))))
 (let ((?x115 (fp.add roundNearestTiesToEven ?x112 (fp.mul roundNearestTiesToEven (fp #b0 #b10000000101 #x090887e4142bf) x6))))
 (fp.leq ?x115 (fp #b1 #b10000000011 #xc3db490744ef5)))))))))
(assert
 (let ((?x122 (fp.add roundNearestTiesToEven (fp.mul roundNearestTiesToEven (fp #b0 #b10000000101 #x728334a7eb36a) x0) (fp.mul roundNearestTiesToEven (fp #b1 #b10000000011 #xa2031cafde557) x1))))
 (let ((?x125 (fp.add roundNearestTiesToEven ?x122 (fp.mul roundNearestTiesToEven (fp #b1 #b10000000100 #x79721dd2dc859) x2))))
 (let ((?x128 (fp.add roundNearestTiesToEven ?x125 (fp.mul roundNearestTiesToEven (fp #b1 #b10000000101 #x5fa84f077d53e) x3))))
 (let ((?x131 (fp.add roundNearestTiesToEven ?x128 (fp.mul roundNearestTiesToEven (fp #b0 #b10000000011 #x4017e52c2fa0b) x4))))
 (let ((?x134 (fp.add roundNearestTiesToEven ?x131 (fp.mul roundNearestTiesToEven (fp #b0 #b10000000010 #x6040cd75792c7) x5))))
 (let ((?x137 (fp.add roundNearestTiesToEven ?x134 (fp.mul roundNearestTiesToEven (fp #b1 #b10000000001 #x7e913635cf9fe) x6))))
 (fp.leq ?x137 (fp #b0 #b10000000101 #x5e7650eea9057)))))))))
(assert
 (let ((?x144 (fp.add roundNearestTiesToEven (fp.mul roundNearestTiesToEven (fp #b0 #b10000000011 #x50096b35649a1) x0) (fp.mul roundNearestTiesToEven (fp #b1 #b10000000101 #x4dc31530d4010) x1))))
 (let ((?x147 (fp.add roundNearestTiesToEven ?x144 (fp.mul roundNearestTiesToEven (fp #b1 #b10000000100 #x7f4145925199d) x2))))
 (let ((?x150 (fp.add roundNearestTiesToEven ?x147 (fp.mul roundNearestTiesToEven (fp #b0 #b10000000011 #xde2c0d52f7d70) x3))))
 (let ((?x153 (fp.add roundNearestTiesToEven ?x150 (fp.mul roundNearestTiesToEven (fp #b1 #b10000000101 #x17945d6058d0a) x4))))
 (let ((?x156 (fp.add roundNearestTiesToEven ?x153 (fp.mul roundNearestTiesToEven (fp #b0 #b10000000100 #x3b50452a6589b) x5))))
 (let ((?x159 (fp.add roundNearestTiesToEven ?x156 (fp.mul roundNearestTiesToEven (fp #b0 #b10000000100 #x958ba8b59067f) x6))))
 (fp.leq ?x159 (fp #b1 #b10000000000 #xa305ea83f46de)))))))))
(assert
 (let ((?x166 (fp.add roundNearestTiesToEven (fp.mul roundNearestTiesToEven (fp #b0 #b10000000001 #x4cf14c48a0680) x0) (fp.mul roundNearestTiesToEven (fp #b0 #b10000000101 #x165a861895d68) x1))))
 (let ((?x169 (fp.add roundNearestTiesToEven ?x166 (fp.mul roundNearestTiesToEven (fp #b1 #b10000000001 #xd6fdf004b0b5d) x2))))
 (let ((?x172 (fp.add roundNearestTiesToEven ?x169 (fp.mul roundNearestTiesToEven (fp #b1 #b10000000100 #x9bc0bde34927a) x3))))
 (let ((?x175 (fp.add roundNearestTiesToEven ?x172 (fp.mul roundNearestTiesToEven (fp #b0 #b10000000101 #x87cc79e3e52af) x4))))
 (let ((?x178 (fp.add roundNearestTiesToEven ?x175 (fp.mul roundNearestTiesToEven (fp #b0 #b10000000101 #x3323df1d17f4e) x5))))
 (let ((?x181 (fp.add roundNearestTiesToEven ?x178 (fp.mul roundNearestTiesToEven (fp #b1 #b10000000101 #x2c23f161bd531) x6))))
 (fp.leq ?x181 (fp #b1 #b10000000010 #xd325689812b8a)))))))))
(assert
 (let ((?x188 (fp.add roundNearestTiesToEven (fp.mul roundNearestTiesToEven (fp #b1 #b10000000011 #xc93460f0dfa1c) x0) (fp.mul roundNearestTiesToEven (fp #b0 #b10000000100 #xfb5bb5ae7e422) x1))))
(let ((?x191 (fp.add roundNearestTiesToEven ?x188 (fp.mul roundNearestTiesToEven (fp #b0 #b10000000101 #x58b027e0d50c1) x2))))
(let ((?x194 (fp.add roundNearestTiesToEven ?x191 (fp.mul roundNearestTiesToEven (fp #b1 #b10000000100 #xf5c7ff8f23c45) x3))))
(let ((?x197 (fp.add roundNearestTiesToEven ?x194 (fp.mul roundNearestTiesToEven (fp #b1 #b10000000101 #x9839e71a33a55) x4))))
(let ((?x200 (fp.add roundNearestTiesToEven ?x197 (fp.mul roundNearestTiesToEven (fp #b0 #b10000000100 #xc2305772e53ad) x5))))
(let ((?x203 (fp.add roundNearestTiesToEven ?x200 (fp.mul roundNearestTiesToEven (fp #b0 #b10000000101 #x46d3fadbf3f5a) x6))))
(fp.leq ?x203 (fp #b0 #b10000000101 #x39c66269d9f22)))))))))
(check-sat)
(exit)
